c Result of efficient AIG-to-CNF conversion using package CNF
p cnf 552 2048
2 3 -482 0
2 488 3 -12 0
-2 -3 0
-2 -488 482 0
-2 12 482 0
-3 501 514 4 8 0
3 -501 0
3 -8 0
3 -4 0
3 -514 0
-4 492 493 5 6 0
4 -492 0
4 -6 0
4 -5 0
4 -493 0
-5 494 495 496 0
5 -494 0
5 -496 0
5 -495 0
-6 489 490 491 7 0
6 -7 0
6 -491 0
6 -489 0
6 -490 0
-7 497 498 499 500 0
7 -500 0
7 -499 0
7 -497 0
7 -498 0
-8 502 503 504 9 0
8 -9 0
8 -504 0
8 -502 0
8 -503 0
-9 511 512 513 10 0
9 -10 0
9 -513 0
9 -511 0
9 -512 0
-10 509 510 11 0
10 -11 0
10 -510 0
10 -509 0
-11 505 506 507 508 0
11 -508 0
11 -507 0
11 -505 0
11 -506 0
-12 515 13 0
-12 -515 377 450 0
12 -515 -450 0
12 515 -13 0
12 -515 -377 0
-13 -516 14 358 0
-13 516 318 358 0
13 -358 0
13 -516 -14 0
13 516 -318 0
-14 508 15 307 0
-14 15 262 307 0
14 -307 0
14 -15 0
14 -508 -262 0
-15 511 16 230 0
-15 16 230 243 0
15 -16 0
15 -230 0
15 -511 -243 0
-16 512 211 0
-16 -17 -113 211 0
-16 17 113 211 0
16 -211 0
16 -512 17 -113 0
16 -512 -17 113 0
17 517 -18 0
17 -517 -78 0
-17 -517 78 0
-17 517 18 0
18 518 -19 0
18 -518 -58 0
-18 -518 58 0
-18 518 19 0
19 519 -20 0
19 -519 -45 0
-19 -519 45 0
-19 519 20 0
20 -21 34 0
-20 21 0
-20 -34 0
21 548 -22 0
21 -548 -29 0
-21 -548 29 0
-21 548 22 0
22 549 -23 0
22 -549 -26 0
-22 -549 26 0
-22 549 23 0
23 550 -24 0
23 -550 -25 0
-23 -550 25 0
-23 550 24 0
24 -537 -551 0
24 -536 551 0
-24 536 551 0
-24 537 -551 0
25 -539 -551 0
25 -538 551 0
-25 538 551 0
-25 539 -551 0
26 550 -27 0
26 -550 -28 0
-26 -550 28 0
-26 550 27 0
27 -541 -551 0
27 -540 551 0
-27 540 551 0
-27 541 -551 0
28 -543 -551 0
28 -542 551 0
-28 542 551 0
-28 543 -551 0
29 549 -30 0
29 -549 -33 0
-29 -549 33 0
-29 549 30 0
30 550 -31 0
30 -550 -32 0
-30 -550 32 0
-30 550 31 0
31 -545 -551 0
31 -544 551 0
-31 544 551 0
-31 545 -551 0
32 -547 -551 0
32 -546 551 0
-32 546 551 0
-32 547 -551 0
-33 549 550 -551 0
-33 548 550 551 0
33 -550 0
33 -548 551 0
33 -549 -551 0
-34 547 35 0
34 -547 0
34 -35 0
-35 36 41 43 44 0
35 -44 0
35 -36 0
35 -43 0
35 -41 0
-36 530 533 37 39 0
36 -530 0
36 -39 0
36 -37 0
36 -533 0
-37 521 534 535 38 0
37 -38 0
37 -535 0
37 -521 0
37 -534 0
-38 522 526 0
38 -522 0
38 -526 0
-39 527 528 529 40 0
39 -40 0
39 -529 0
39 -527 0
39 -528 0
-40 523 542 543 545 0
40 -545 0
40 -543 0
40 -523 0
40 -542 0
-41 520 524 538 42 0
41 -42 0
41 -538 0
41 -520 0
41 -524 0
-42 525 536 537 0
42 -525 0
42 -537 0
42 -536 0
-43 531 532 541 0
43 -531 0
43 -541 0
43 -532 0
-44 539 540 544 546 0
44 -546 0
44 -544 0
44 -539 0
44 -540 0
45 548 34 -51 0
45 -548 34 -46 0
-45 -34 0
-45 -548 46 0
-45 548 51 0
46 -549 -550 0
46 549 -47 0
46 -549 -50 0
-46 549 47 0
-46 -549 550 50 0
47 550 -48 0
47 -550 -49 0
-47 -550 49 0
-47 550 48 0
48 -544 -551 0
48 -543 551 0
-48 543 551 0
-48 544 -551 0
49 -546 -551 0
49 -545 551 0
-49 545 551 0
-49 546 -551 0
50 -548 -551 0
50 -547 551 0
-50 547 551 0
-50 548 -551 0
51 549 -52 0
51 -549 -55 0
-51 -549 55 0
-51 549 52 0
52 550 -53 0
52 -550 -54 0
-52 -550 54 0
-52 550 53 0
53 -536 -551 0
53 -535 551 0
-53 535 551 0
-53 536 -551 0
54 -538 -551 0
54 -537 551 0
-54 537 551 0
-54 538 -551 0
55 550 -56 0
55 -550 -57 0
-55 -550 57 0
-55 550 56 0
56 -540 -551 0
56 -539 551 0
-56 539 551 0
-56 540 -551 0
57 -542 -551 0
57 -541 551 0
-57 541 551 0
-57 542 -551 0
58 519 -59 0
58 -519 -70 0
-58 -519 70 0
-58 519 59 0
59 -547 35 -69 0
59 547 35 -60 0
-59 -35 0
-59 -547 69 0
-59 547 60 0
60 548 -61 0
60 -548 -65 0
-60 -548 65 0
-60 548 61 0
61 549 -62 0
61 -549 -64 0
-61 -549 64 0
-61 549 62 0
62 -550 -24 0
62 550 -63 0
-62 550 63 0
-62 -550 24 0
63 -535 -551 0
63 -534 551 0
-63 534 551 0
-63 535 -551 0
64 550 -25 0
64 -550 -27 0
-64 -550 27 0
-64 550 25 0
65 549 -66 0
65 -549 -67 0
-65 -549 67 0
-65 549 66 0
66 550 -28 0
66 -550 -31 0
-66 -550 31 0
-66 550 28 0
67 550 -32 0
67 -550 -68 0
-67 -550 68 0
-67 550 32 0
68 -549 -551 0
68 -548 551 0
-68 548 551 0
-68 549 -551 0
69 548 549 550 -551 0
-69 551 0
-69 -550 0
-69 -548 0
-69 -549 0
70 548 34 -74 0
70 -548 34 -71 0
-70 -34 0
-70 -548 71 0
-70 548 74 0
71 549 -72 0
71 -549 -73 0
-71 -549 73 0
-71 549 72 0
72 -550 -48 0
72 550 -57 0
-72 550 57 0
-72 -550 48 0
73 550 -49 0
73 -550 -50 0
-73 -550 50 0
-73 550 49 0
74 549 -75 0
74 -549 -77 0
-74 -549 77 0
-74 549 75 0
75 -550 -53 0
75 550 -76 0
-75 550 76 0
-75 -550 53 0
76 -534 -551 0
76 -533 551 0
-76 533 551 0
-76 534 -551 0
77 550 -54 0
77 -550 -56 0
-77 -550 56 0
-77 550 54 0
78 518 -79 0
78 -518 -96 0
-78 -518 96 0
-78 518 79 0
79 519 -80 0
79 -519 -87 0
-79 -519 87 0
-79 519 80 0
80 -547 35 -86 0
80 547 35 -81 0
-80 -35 0
-80 -547 86 0
-80 547 81 0
81 548 -82 0
81 -548 -85 0
-81 -548 85 0
-81 548 82 0
82 -549 -23 0
82 549 -83 0
-82 549 83 0
-82 -549 23 0
83 -550 -63 0
83 550 -84 0
-83 550 84 0
-83 -550 63 0
84 -533 -551 0
84 -532 551 0
-84 532 551 0
-84 533 -551 0
85 549 -26 0
85 -549 -30 0
-85 -549 30 0
-85 549 26 0
86 548 549 -550 0
-86 550 0
-86 -549 0
-86 -548 0
87 -547 35 -93 0
87 547 35 -88 0
-87 -35 0
-87 -547 93 0
-87 547 88 0
88 548 -89 0
88 -548 -92 0
-88 -548 92 0
-88 548 89 0
89 -549 -52 0
89 549 -90 0
-89 549 90 0
-89 -549 52 0
90 -550 -76 0
90 550 -91 0
-90 550 91 0
-90 -550 76 0
91 -532 -551 0
91 -531 551 0
-91 531 551 0
-91 532 -551 0
92 -549 -47 0
92 549 -55 0
-92 549 55 0
-92 -549 47 0
93 548 -94 0
-93 -548 0
-93 94 0
94 549 -95 0
-94 -549 0
-94 95 0
95 -549 -550 0
95 550 -50 0
95 -550 -551 0
-95 550 50 0
-95 549 -550 551 0
96 519 -97 0
96 -519 -105 0
-96 -519 105 0
-96 519 97 0
97 -547 35 -103 0
97 547 35 -98 0
-97 -35 0
-97 -547 103 0
-97 547 98 0
98 548 -99 0
98 -548 -102 0
-98 -548 102 0
-98 548 99 0
99 -549 -62 0
99 549 -100 0
-99 549 100 0
-99 -549 62 0
100 -550 -84 0
100 550 -101 0
-100 550 101 0
-100 -550 84 0
101 -531 -551 0
101 -530 551 0
-101 530 551 0
-101 531 -551 0
102 549 -64 0
102 -549 -66 0
-102 -549 66 0
-102 549 64 0
103 548 -104 0
-103 -548 0
-103 104 0
104 549 -67 0
104 -549 550 -551 0
-104 -549 -550 0
-104 549 67 0
-104 -549 551 0
105 -547 35 -111 0
105 547 35 -106 0
-105 -35 0
-105 -547 111 0
-105 547 106 0
106 548 -107 0
106 -548 -110 0
-106 -548 110 0
-106 548 107 0
107 -549 -75 0
107 549 -108 0
-107 549 108 0
-107 -549 75 0
108 -550 -91 0
108 550 -109 0
-108 550 109 0
-108 -550 91 0
109 -530 -551 0
109 -529 551 0
-109 529 551 0
-109 530 -551 0
110 -549 -72 0
110 549 -77 0
-110 549 77 0
-110 -549 72 0
111 548 -112 0
-111 -548 0
-111 112 0
112 549 -73 0
112 -549 550 551 0
-112 -549 -550 0
-112 549 73 0
-112 -549 -551 0
113 517 -114 0
113 -517 -175 0
-113 -517 175 0
-113 517 114 0
114 518 -115 0
114 -518 -150 0
-114 -518 150 0
-114 518 115 0
115 519 -116 0
115 -519 -132 0
-115 -519 132 0
-115 519 116 0
116 34 -117 0
-116 -34 0
-116 117 0
117 548 -118 0
117 -548 -125 0
-117 -548 125 0
-117 548 118 0
118 549 -119 0
118 -549 -122 0
-118 -549 122 0
-118 549 119 0
119 550 -120 0
119 -550 -121 0
-119 -550 121 0
-119 550 120 0
120 -505 -551 0
120 -504 551 0
-120 504 551 0
-120 505 -551 0
121 -507 -551 0
121 -506 551 0
-121 506 551 0
-121 507 -551 0
122 550 -123 0
122 -550 -124 0
-122 -550 124 0
-122 550 123 0
123 -509 -551 0
123 -508 551 0
-123 508 551 0
-123 509 -551 0
124 -511 -551 0
124 -510 551 0
-124 510 551 0
-124 511 -551 0
125 549 -126 0
125 -549 -129 0
-125 -549 129 0
-125 549 126 0
126 550 -127 0
126 -550 -128 0
-126 -550 128 0
-126 550 127 0
127 -513 -551 0
127 -512 551 0
-127 512 551 0
-127 513 -551 0
128 -515 -551 0
128 -514 551 0
-128 514 551 0
-128 515 -551 0
129 550 -130 0
129 -550 -131 0
-129 -550 131 0
-129 550 130 0
130 -517 -551 0
130 -516 551 0
-130 516 551 0
-130 517 -551 0
131 -519 -551 0
131 -518 551 0
-131 518 551 0
-131 519 -551 0
132 -547 35 -148 0
132 547 35 -133 0
-132 -35 0
-132 -547 148 0
-132 547 133 0
133 548 -134 0
133 -548 -141 0
-133 -548 141 0
-133 548 134 0
134 549 -135 0
134 -549 -138 0
-134 -549 138 0
-134 549 135 0
135 550 -136 0
135 -550 -137 0
-135 -550 137 0
-135 550 136 0
136 -504 -551 0
136 -503 551 0
-136 503 551 0
-136 504 -551 0
137 -506 -551 0
137 -505 551 0
-137 505 551 0
-137 506 -551 0
138 550 -139 0
138 -550 -140 0
-138 -550 140 0
-138 550 139 0
139 -508 -551 0
139 -507 551 0
-139 507 551 0
-139 508 -551 0
140 -510 -551 0
140 -509 551 0
-140 509 551 0
-140 510 -551 0
141 549 -142 0
141 -549 -145 0
-141 -549 145 0
-141 549 142 0
142 550 -143 0
142 -550 -144 0
-142 -550 144 0
-142 550 143 0
143 -512 -551 0
143 -511 551 0
-143 511 551 0
-143 512 -551 0
144 -514 -551 0
144 -513 551 0
-144 513 551 0
-144 514 -551 0
145 550 -146 0
145 -550 -147 0
-145 -550 147 0
-145 550 146 0
146 -516 -551 0
146 -515 551 0
-146 515 551 0
-146 516 -551 0
147 -518 -551 0
147 -517 551 0
-147 517 551 0
-147 518 -551 0
148 548 -149 0
-148 -548 0
-148 149 0
149 -519 549 550 551 0
-149 -551 0
-149 -550 0
-149 519 0
-149 -549 0
150 519 -151 0
150 -519 -163 0
-150 -519 163 0
-150 519 151 0
151 -547 35 -160 0
151 547 35 -152 0
-151 -35 0
-151 -547 160 0
-151 547 152 0
152 548 -153 0
152 -548 -157 0
-152 -548 157 0
-152 548 153 0
153 549 -154 0
153 -549 -156 0
-153 -549 156 0
-153 549 154 0
154 -550 -120 0
154 550 -155 0
-154 550 155 0
-154 -550 120 0
155 -503 -551 0
155 -502 551 0
-155 502 551 0
-155 503 -551 0
156 550 -121 0
156 -550 -123 0
-156 -550 123 0
-156 550 121 0
157 549 -158 0
157 -549 -159 0
-157 -549 159 0
-157 549 158 0
158 550 -124 0
158 -550 -127 0
-158 -550 127 0
-158 550 124 0
159 550 -128 0
159 -550 -130 0
-159 -550 130 0
-159 550 128 0
160 548 -161 0
-160 -548 0
-160 161 0
161 549 -162 0
-161 -549 0
-161 162 0
162 -518 550 551 0
162 -519 550 -551 0
-162 -550 0
-162 519 -551 0
-162 518 551 0
163 -547 35 -172 0
163 547 35 -164 0
-163 -35 0
-163 -547 172 0
-163 547 164 0
164 548 -165 0
164 -548 -169 0
-164 -548 169 0
-164 548 165 0
165 549 -166 0
165 -549 -168 0
-165 -549 168 0
-165 549 166 0
166 -550 -136 0
166 550 -167 0
-166 550 167 0
-166 -550 136 0
167 -502 -551 0
167 -501 551 0
-167 501 551 0
-167 502 -551 0
168 550 -137 0
168 -550 -139 0
-168 -550 139 0
-168 550 137 0
169 549 -170 0
169 -549 -171 0
-169 -549 171 0
-169 549 170 0
170 550 -140 0
170 -550 -143 0
-170 -550 143 0
-170 550 140 0
171 550 -144 0
171 -550 -146 0
-171 -550 146 0
-171 550 144 0
172 548 -173 0
-172 -548 0
-172 173 0
173 549 -174 0
-173 -549 0
-173 174 0
174 550 -147 0
174 -519 -550 551 0
-174 550 147 0
-174 -550 -551 0
-174 519 -550 0
175 518 -176 0
175 -518 -194 0
-175 -518 194 0
-175 518 176 0
176 519 -177 0
176 -519 -185 0
-176 -519 185 0
-176 519 177 0
177 -547 35 -183 0
177 547 35 -178 0
-177 -35 0
-177 -547 183 0
-177 547 178 0
178 548 -179 0
178 -548 -182 0
-178 -548 182 0
-178 548 179 0
179 -549 -119 0
179 549 -180 0
-179 549 180 0
-179 -549 119 0
180 -550 -155 0
180 550 -181 0
-180 550 181 0
-180 -550 155 0
181 -501 -551 0
181 -500 551 0
-181 500 551 0
-181 501 -551 0
182 549 -122 0
182 -549 -126 0
-182 -549 126 0
-182 549 122 0
183 548 -184 0
-183 -548 0
-183 184 0
184 549 -129 0
-184 -549 0
-184 129 0
185 -547 35 -191 0
185 547 35 -186 0
-185 -35 0
-185 -547 191 0
-185 547 186 0
186 548 -187 0
186 -548 -190 0
-186 -548 190 0
-186 548 187 0
187 -549 -135 0
187 549 -188 0
-187 549 188 0
-187 -549 135 0
188 -550 -167 0
188 550 -189 0
-188 550 189 0
-188 -550 167 0
189 -500 -551 0
189 -499 551 0
-189 499 551 0
-189 500 -551 0
190 549 -138 0
190 -549 -142 0
-190 -549 142 0
-190 549 138 0
191 548 -192 0
-191 -548 0
-191 192 0
192 549 -145 0
192 -549 -193 0
-192 -549 193 0
-192 549 145 0
193 -519 550 551 0
-193 519 0
-193 -551 0
-193 -550 0
194 519 -195 0
194 -519 -203 0
-194 -519 203 0
-194 519 195 0
195 -547 35 -201 0
195 547 35 -196 0
-195 -35 0
-195 -547 201 0
-195 547 196 0
196 548 -197 0
196 -548 -200 0
-196 -548 200 0
-196 548 197 0
197 -549 -154 0
197 549 -198 0
-197 549 198 0
-197 -549 154 0
198 -550 -181 0
198 550 -199 0
-198 550 199 0
-198 -550 181 0
199 -499 -551 0
199 -498 551 0
-199 498 551 0
-199 499 -551 0
200 549 -156 0
200 -549 -158 0
-200 -549 158 0
-200 549 156 0
201 548 -202 0
-201 -548 0
-201 202 0
202 549 -159 0
202 -549 -162 0
-202 -549 162 0
-202 549 159 0
203 -547 35 -209 0
203 547 35 -204 0
-203 -35 0
-203 -547 209 0
-203 547 204 0
204 548 -205 0
204 -548 -208 0
-204 -548 208 0
-204 548 205 0
205 -549 -166 0
205 549 -206 0
-205 549 206 0
-205 -549 166 0
206 -550 -189 0
206 550 -207 0
-206 550 207 0
-206 -550 189 0
207 -498 -551 0
207 -497 551 0
-207 497 551 0
-207 498 -551 0
208 549 -168 0
208 -549 -170 0
-208 -549 170 0
-208 549 168 0
209 548 -210 0
-209 -548 0
-209 210 0
210 549 -171 0
210 -549 -174 0
-210 -549 174 0
-210 549 171 0
211 -513 212 -221 0
211 -513 -212 221 0
-211 513 0
-211 -212 -221 0
-211 212 221 0
212 517 -213 0
212 -517 -218 0
-212 -517 218 0
-212 517 213 0
213 518 -214 0
213 -518 -217 0
-213 -518 217 0
-213 518 214 0
214 -519 -20 0
214 519 -215 0
-214 519 215 0
-214 -519 20 0
215 34 -216 0
-215 -34 0
-215 216 0
216 548 -110 0
216 -548 -112 0
-216 -548 112 0
-216 548 110 0
217 519 -45 0
217 -519 -59 0
-217 -519 59 0
-217 519 45 0
218 518 -219 0
218 -518 -220 0
-218 -518 220 0
-218 518 219 0
219 519 -70 0
219 -519 -80 0
-219 -519 80 0
-219 519 70 0
220 519 -87 0
220 -519 -97 0
-220 -519 97 0
-220 519 87 0
221 517 -222 0
221 -517 -227 0
-221 -517 227 0
-221 517 222 0
222 518 -223 0
222 -518 -226 0
-222 -518 226 0
-222 518 223 0
223 -519 -116 0
223 519 -224 0
-223 519 224 0
-223 -519 116 0
224 34 -225 0
-224 -34 0
-224 225 0
225 548 -208 0
225 -548 -210 0
-225 -548 210 0
-225 548 208 0
226 519 -132 0
226 -519 -151 0
-226 -519 151 0
-226 519 132 0
227 518 -228 0
227 -518 -229 0
-227 -518 229 0
-227 518 228 0
228 519 -163 0
228 -519 -177 0
-228 -519 177 0
-228 519 163 0
229 519 -185 0
229 -519 -195 0
-229 -519 195 0
-229 519 185 0
230 -514 231 -237 0
230 -514 -231 237 0
-230 514 0
-230 -231 -237 0
-230 231 237 0
231 517 -232 0
231 -517 -236 0
-231 -517 236 0
-231 517 232 0
232 -518 -19 0
232 518 -233 0
-232 518 233 0
-232 -518 19 0
233 -519 -215 0
233 519 -234 0
-233 519 234 0
-233 -519 215 0
234 34 -235 0
-234 -34 0
-234 235 0
235 548 -102 0
235 -548 -104 0
-235 -548 104 0
-235 548 102 0
236 518 -58 0
236 -518 -79 0
-236 -518 79 0
-236 518 58 0
237 517 -238 0
237 -517 -242 0
-237 -517 242 0
-237 517 238 0
238 -518 -115 0
238 518 -239 0
-238 518 239 0
-238 -518 115 0
239 -519 -224 0
239 519 -240 0
-239 519 240 0
-239 -519 224 0
240 34 -241 0
-240 -34 0
-240 241 0
241 548 -200 0
241 -548 -202 0
-241 -548 202 0
-241 548 200 0
242 518 -150 0
242 -518 -176 0
-242 -518 176 0
-242 518 150 0
-243 -517 246 0
-243 517 244 0
243 517 -244 0
243 -517 -246 0
244 518 -245 0
244 -518 219 -228 0
244 -518 -219 228 0
-244 518 245 0
-244 -518 -219 -228 0
-244 -518 219 228 0
245 217 -226 0
245 -217 226 0
-245 -217 -226 0
-245 217 226 0
-246 518 261 0
-246 -518 247 254 0
-246 -518 -247 -254 0
246 518 -261 0
246 -518 -247 254 0
246 -518 247 -254 0
247 519 -105 0
247 -519 -248 0
-247 -519 248 0
-247 519 105 0
248 -547 35 -253 0
248 547 35 -249 0
-248 -35 0
-248 -547 253 0
-248 547 249 0
249 -548 -22 0
249 548 -250 0
-249 548 250 0
-249 -548 22 0
250 -549 -83 0
250 549 -251 0
-250 549 251 0
-250 -549 83 0
251 -550 -101 0
251 550 -252 0
-251 550 252 0
-251 -550 101 0
252 -529 -551 0
252 -528 551 0
-252 528 551 0
-252 529 -551 0
253 548 -29 0
-253 -548 0
-253 29 0
254 519 -203 0
254 -519 -255 0
-254 -519 255 0
-254 519 203 0
255 -547 35 -260 0
255 547 35 -256 0
-255 -35 0
-255 -547 260 0
-255 547 256 0
256 -548 -118 0
256 548 -257 0
-256 548 257 0
-256 -548 118 0
257 -549 -180 0
257 549 -258 0
-257 549 258 0
-257 -549 180 0
258 -550 -199 0
258 550 -259 0
-258 550 259 0
-258 -550 199 0
259 -497 -551 0
259 -496 551 0
-259 496 551 0
-259 497 -551 0
260 548 -125 0
-260 -548 0
-260 125 0
-261 -220 -229 0
-261 220 229 0
261 220 -229 0
261 -220 229 0
-262 517 306 0
-262 -517 263 285 0
-262 -517 -263 -285 0
262 517 -306 0
262 -517 -263 285 0
262 -517 263 -285 0
263 518 -264 0
263 -518 -271 0
-263 -518 271 0
-263 518 264 0
264 519 -248 0
264 -519 -265 0
-264 -519 265 0
-264 519 248 0
265 -547 35 -270 0
265 547 35 -266 0
-265 -35 0
-265 -547 270 0
-265 547 266 0
266 -548 -51 0
266 548 -267 0
-266 548 267 0
-266 -548 51 0
267 -549 -90 0
267 549 -268 0
-267 549 268 0
-267 -549 90 0
268 -550 -109 0
268 550 -269 0
-268 550 269 0
-268 -550 109 0
269 -528 -551 0
269 -527 551 0
-269 527 551 0
-269 528 -551 0
270 548 -46 0
-270 -548 0
-270 46 0
271 519 -272 0
271 -519 -279 0
-271 -519 279 0
-271 519 272 0
272 -547 35 -277 0
272 547 35 -273 0
-272 -35 0
-272 -547 277 0
-272 547 273 0
-273 -548 61 0
-273 548 274 0
273 -548 -61 0
273 548 -274 0
-274 549 275 0
-274 -549 100 0
274 -549 -100 0
274 549 -275 0
275 -550 -252 0
275 550 -276 0
-275 550 276 0
-275 -550 252 0
276 -527 -551 0
276 -526 551 0
-276 526 551 0
-276 527 -551 0
277 548 -65 0
277 -548 549 -278 0
-277 -548 -549 0
-277 548 65 0
-277 -548 278 0
278 550 -551 0
-278 -550 0
-278 551 0
279 -547 35 -284 0
279 547 35 -280 0
-279 -35 0
-279 -547 284 0
-279 547 280 0
280 -548 -74 0
280 548 -281 0
-280 548 281 0
-280 -548 74 0
281 -549 -108 0
281 549 -282 0
-281 549 282 0
-281 -549 108 0
282 -550 -269 0
282 550 -283 0
-282 550 283 0
-282 -550 269 0
283 -526 -551 0
283 -525 551 0
-283 525 551 0
-283 526 -551 0
284 548 -71 0
-284 -548 0
-284 71 0
285 518 -286 0
285 -518 -293 0
-285 -518 293 0
-285 518 286 0
286 519 -255 0
286 -519 -287 0
-286 -519 287 0
-286 519 255 0
287 -547 35 -292 0
287 547 35 -288 0
-287 -35 0
-287 -547 292 0
-287 547 288 0
-288 -548 134 0
-288 548 289 0
288 -548 -134 0
288 548 -289 0
-289 549 290 0
-289 -549 188 0
289 -549 -188 0
289 549 -290 0
290 -550 -207 0
290 550 -291 0
-290 550 291 0
-290 -550 207 0
291 -496 -551 0
291 -495 551 0
-291 495 551 0
-291 496 -551 0
292 548 -141 0
292 -548 -149 0
-292 -548 149 0
-292 548 141 0
293 519 -294 0
293 -519 -300 0
-293 -519 300 0
-293 519 294 0
294 -547 35 -299 0
294 547 35 -295 0
-294 -35 0
-294 -547 299 0
-294 547 295 0
-295 -548 153 0
-295 548 296 0
295 -548 -153 0
295 548 -296 0
-296 549 297 0
-296 -549 198 0
296 -549 -198 0
296 549 -297 0
297 -550 -259 0
297 550 -298 0
-297 550 298 0
-297 -550 259 0
298 -495 -551 0
298 -494 551 0
-298 494 551 0
-298 495 -551 0
299 548 -157 0
299 -548 -161 0
-299 -548 161 0
-299 548 157 0
300 -547 35 -305 0
300 547 35 -301 0
-300 -35 0
-300 -547 305 0
-300 547 301 0
-301 -548 165 0
-301 548 302 0
301 -548 -165 0
301 548 -302 0
-302 549 303 0
-302 -549 206 0
302 -549 -206 0
302 549 -303 0
303 -550 -291 0
303 550 -304 0
-303 550 304 0
-303 -550 291 0
304 -494 -551 0
304 -493 551 0
-304 493 551 0
-304 494 -551 0
305 548 -169 0
305 -548 -173 0
-305 -548 173 0
-305 548 169 0
-306 -78 -175 0
-306 78 175 0
306 78 -175 0
306 -78 175 0
-307 509 510 0
-307 308 312 0
-307 510 312 0
-307 509 308 0
307 -510 -308 0
307 -509 -312 0
-308 517 311 0
-308 -517 309 310 0
-308 -517 -309 -310 0
308 517 -311 0
308 -517 -309 310 0
308 -517 309 -310 0
309 518 -96 0
309 -518 -264 0
-309 -518 264 0
-309 518 96 0
310 518 -194 0
310 -518 -286 0
-310 -518 286 0
-310 518 194 0
-311 -236 -242 0
-311 236 242 0
311 236 -242 0
311 -236 242 0
-312 517 317 0
-312 -517 313 315 0
-312 -517 -313 -315 0
312 517 -317 0
312 -517 -313 315 0
312 -517 313 -315 0
313 518 -247 0
313 -518 -314 0
-313 -518 314 0
-313 518 247 0
314 519 -265 0
314 -519 -272 0
-314 -519 272 0
-314 519 265 0
315 518 -254 0
315 -518 -316 0
-315 -518 316 0
-315 518 254 0
316 519 -287 0
316 -519 -294 0
-316 -519 294 0
-316 519 287 0
-317 -218 -227 0
-317 218 227 0
317 218 -227 0
317 -218 227 0
-318 511 335 342 0
-318 319 335 342 0
318 -342 0
318 -335 0
318 -511 -319 0
-319 517 320 0
-319 -517 330 0
319 -517 -330 0
319 517 -320 0
-320 -518 321 0
-320 518 327 0
320 518 -327 0
320 -518 -321 0
-321 -519 323 0
-321 519 322 0
321 519 -322 0
321 -519 -323 0
322 34 284 -305 0
322 34 -284 305 0
-322 -34 0
-322 -284 -305 0
-322 284 305 0
323 34 324 -326 0
323 34 -324 326 0
-323 -34 0
-323 -324 -326 0
-323 324 326 0
324 548 -85 0
324 -548 -325 0
-324 -548 325 0
-324 548 85 0
325 549 -550 0
325 -548 549 551 0
-325 -549 0
-325 550 -551 0
-325 548 550 0
326 548 -182 0
326 -548 -184 0
-326 -548 184 0
-326 548 182 0
-327 -519 329 0
-327 519 328 0
327 519 -328 0
327 -519 -329 0
328 34 270 -292 0
328 34 -270 292 0
-328 -34 0
-328 -270 -292 0
-328 270 292 0
329 34 277 -299 0
329 34 -277 299 0
-329 -34 0
-329 -277 -299 0
-329 277 299 0
-330 518 331 0
-330 -518 214 223 0
-330 -518 -214 -223 0
330 518 -331 0
330 -518 -214 223 0
330 -518 214 -223 0
-331 519 332 0
-331 -519 -234 -240 0
-331 -519 234 240 0
331 519 -332 0
331 -519 234 -240 0
331 -519 -234 240 0
332 34 333 -334 0
332 34 -333 334 0
-332 -34 0
-332 -333 -334 0
-332 333 334 0
333 548 -92 0
333 -548 -94 0
-333 -548 94 0
-333 548 92 0
334 548 -190 0
334 -548 -192 0
-334 -548 192 0
-334 548 190 0
335 -513 517 -337 0
335 -513 -517 -336 0
-335 513 0
-335 -517 336 0
-335 517 337 0
-336 518 321 0
-336 -518 331 0
336 -518 -331 0
336 518 -321 0
-337 -518 327 0
-337 518 338 0
337 518 -338 0
337 -518 -327 0
-338 -519 340 0
-338 519 339 0
338 519 -339 0
338 -519 -340 0
339 34 111 -209 0
339 34 -111 209 0
-339 -34 0
-339 -111 -209 0
-339 111 209 0
340 34 -341 0
-340 -34 0
-340 341 0
-341 -253 -260 0
-341 253 260 0
341 253 -260 0
341 -253 260 0
-342 -517 343 355 0
-342 517 348 355 0
342 -355 0
342 -517 -343 0
342 517 -348 0
-343 512 514 0
-343 344 347 0
-343 514 347 0
-343 512 344 0
343 -512 -347 0
343 -514 -344 0
-344 518 345 0
-344 -518 346 0
344 -518 -346 0
344 518 -345 0
-345 519 329 0
-345 -519 322 0
345 -519 -322 0
345 519 -329 0
-346 -519 332 0
-346 519 323 0
346 519 -323 0
346 -519 -332 0
347 518 -346 0
347 -518 -233 239 0
347 -518 233 -239 0
-347 518 346 0
-347 -518 233 239 0
-347 -518 -233 -239 0
-348 349 351 0
-348 514 349 0
348 -349 0
348 -514 -351 0
349 -512 518 -350 0
349 -512 -518 -345 0
-349 512 0
-349 -518 345 0
-349 518 350 0
-350 519 340 0
-350 -519 328 0
350 -519 -328 0
350 519 -340 0
-351 -518 350 0
-351 518 352 0
351 518 -352 0
351 -518 -350 0
-352 519 353 0
-352 -519 339 0
352 -519 -339 0
352 519 -353 0
353 34 -354 0
-353 -34 0
-353 354 0
-354 -103 -201 0
-354 103 201 0
354 103 -201 0
354 -103 201 0
-355 -517 356 0
-355 336 356 0
-355 509 356 0
355 -356 0
355 -509 517 -336 0
356 -510 -357 0
-356 510 0
-356 357 0
-357 517 344 0
-357 -517 232 238 0
-357 -517 -232 -238 0
357 517 -344 0
357 -517 -232 238 0
357 -517 232 -238 0
-358 359 368 372 0
-358 519 368 372 0
358 -368 0
358 -372 0
358 -519 -359 0
-359 -516 319 0
-359 516 360 0
359 516 -360 0
359 -516 -319 0
-360 517 365 0
-360 -517 361 0
-360 517 518 0
360 -517 -361 0
360 517 -518 -365 0
-361 -518 338 0
-361 518 362 0
361 -518 -338 0
361 518 -362 0
362 -519 -353 0
362 519 -363 0
-362 519 363 0
-362 -519 353 0
363 34 -364 0
-363 -34 0
-363 364 0
-364 -93 -191 0
-364 93 191 0
364 93 -191 0
364 -93 191 0
-365 519 367 0
-365 -519 366 0
365 -519 -366 0
365 519 -367 0
366 34 86 -183 0
366 34 -86 183 0
-366 -34 0
-366 -86 -183 0
-366 86 183 0
367 34 -172 0
-367 -34 0
-367 172 0
-368 369 371 0
-368 508 516 369 0
368 -369 0
368 -516 -371 0
368 -508 -371 0
369 -517 -370 0
369 516 -517 -337 0
-369 517 0
-369 -516 370 0
-369 337 370 0
370 -509 -213 222 0
370 -516 213 -222 0
370 -509 213 -222 0
370 -516 -213 222 0
-370 213 222 0
-370 -213 -222 0
-370 509 516 0
371 517 -347 0
371 -517 18 -114 0
371 -517 -18 114 0
-371 517 347 0
-371 -517 -18 -114 0
-371 -517 18 114 0
372 516 -518 -373 0
372 -516 -518 -357 0
-372 518 0
-372 516 373 0
-372 -516 357 0
-373 -517 351 0
-373 517 374 375 0
373 517 -375 0
373 -517 -351 0
373 517 -374 0
374 518 -519 -367 0
374 -518 -519 -363 0
-374 519 0
-374 -518 363 0
-374 518 367 0
375 518 519 -376 0
375 -518 519 -366 0
-375 -519 0
-375 -518 366 0
-375 518 376 0
376 34 69 -160 0
376 34 -69 160 0
-376 -34 0
-376 -69 -160 0
-376 69 160 0
-377 378 440 446 0
-377 513 378 440 0
377 -440 0
377 -378 0
377 -513 -446 0
378 516 -517 -312 0
378 -516 -517 -379 0
-378 517 0
-378 -516 379 0
-378 516 312 0
-379 -380 -410 0
-379 380 410 0
379 380 -410 0
379 -380 410 0
380 517 -381 0
380 -517 518 -399 0
-380 -517 -518 0
-380 517 381 0
-380 -517 399 0
381 518 -382 0
381 -518 -388 0
-381 -518 388 0
-381 518 382 0
382 519 -279 0
382 -519 -383 0
-382 -519 383 0
-382 519 279 0
383 547 35 -384 0
383 -547 35 -324 0
-383 -35 0
-383 547 384 0
-383 -547 324 0
-384 -548 82 0
-384 548 385 0
384 -548 -82 0
384 548 -385 0
-385 549 386 0
-385 -549 251 0
385 -549 -251 0
385 549 -386 0
386 -550 -276 0
386 550 -387 0
-386 550 387 0
-386 -550 276 0
387 -525 -551 0
387 -524 551 0
-387 524 551 0
-387 525 -551 0
388 519 -389 0
388 -519 -394 0
-388 -519 394 0
-388 519 389 0
389 547 35 -390 0
389 -547 35 -333 0
-389 -35 0
-389 547 390 0
-389 -547 333 0
-390 -548 89 0
-390 548 391 0
390 -548 -89 0
390 548 -391 0
-391 -549 268 0
-391 549 392 0
391 -549 -268 0
391 549 -392 0
-392 550 393 0
-392 -550 283 0
392 -550 -283 0
392 550 -393 0
393 -524 -551 0
393 -523 551 0
-393 523 551 0
-393 524 -551 0
394 547 35 -395 0
394 -547 35 -235 0
-394 -35 0
-394 547 395 0
-394 -547 235 0
-395 -548 99 0
-395 548 396 0
395 -548 -99 0
395 548 -396 0
-396 -549 275 0
-396 549 397 0
396 -549 -275 0
396 549 -397 0
-397 550 398 0
-397 -550 387 0
397 -550 -387 0
397 550 -398 0
398 -523 -551 0
398 -522 551 0
-398 522 551 0
-398 523 -551 0
399 519 -400 0
399 -519 -405 0
-399 -519 405 0
-399 519 400 0
400 547 35 -401 0
400 -547 35 -216 0
-400 -35 0
-400 547 401 0
-400 -547 216 0
-401 -548 107 0
-401 548 402 0
401 -548 -107 0
401 548 -402 0
-402 -549 282 0
-402 549 403 0
402 -549 -282 0
402 549 -403 0
-403 550 404 0
-403 -550 393 0
403 -550 -393 0
403 550 -404 0
404 -522 -551 0
404 -521 551 0
-404 521 551 0
-404 522 -551 0
405 547 35 -406 0
405 -547 -21 35 0
-405 -35 0
-405 547 406 0
-405 -547 21 0
-406 -548 250 0
-406 548 407 0
406 -548 -250 0
406 548 -407 0
-407 -549 386 0
-407 549 408 0
407 -549 -386 0
407 549 -408 0
-408 550 409 0
-408 -550 398 0
408 -550 -398 0
408 550 -409 0
409 -521 -551 0
409 -520 551 0
-409 520 551 0
-409 521 -551 0
410 517 -411 0
410 -517 518 -429 0
-410 -517 -518 0
-410 517 411 0
-410 -517 429 0
411 518 -412 0
411 -518 -418 0
-411 -518 418 0
-411 518 412 0
412 519 -300 0
412 -519 -413 0
-412 -519 413 0
-412 519 300 0
413 547 35 -414 0
413 -547 35 -326 0
-413 -35 0
-413 547 414 0
-413 -547 326 0
-414 -548 179 0
-414 548 415 0
414 -548 -179 0
414 548 -415 0
-415 549 416 0
-415 -549 258 0
415 -549 -258 0
415 549 -416 0
416 -550 -298 0
416 550 -417 0
-416 550 417 0
-416 -550 298 0
417 -493 -551 0
417 -492 551 0
-417 492 551 0
-417 493 -551 0
418 519 -419 0
418 -519 -424 0
-418 -519 424 0
-418 519 419 0
419 547 35 -420 0
419 -547 35 -334 0
-419 -35 0
-419 547 420 0
-419 -547 334 0
-420 -548 187 0
-420 548 421 0
420 -548 -187 0
420 548 -421 0
-421 -549 290 0
-421 549 422 0
421 -549 -290 0
421 549 -422 0
-422 550 423 0
-422 -550 304 0
422 -550 -304 0
422 550 -423 0
423 -492 -551 0
423 -491 551 0
-423 491 551 0
-423 492 -551 0
424 547 35 -425 0
424 -547 35 -241 0
-424 -35 0
-424 547 425 0
-424 -547 241 0
-425 -548 197 0
-425 548 426 0
425 -548 -197 0
425 548 -426 0
-426 -549 297 0
-426 549 427 0
426 -549 -297 0
426 549 -427 0
-427 550 428 0
-427 -550 417 0
427 -550 -417 0
427 550 -428 0
428 -491 -551 0
428 -490 551 0
-428 490 551 0
-428 491 -551 0
429 519 -430 0
429 -519 -435 0
-429 -519 435 0
-429 519 430 0
430 547 35 -431 0
430 -547 35 -225 0
-430 -35 0
-430 547 431 0
-430 -547 225 0
-431 -548 205 0
-431 548 432 0
431 -548 -205 0
431 548 -432 0
-432 -549 303 0
-432 549 433 0
432 -549 -303 0
432 549 -433 0
-433 550 434 0
-433 -550 423 0
433 -550 -423 0
433 550 -434 0
434 -490 -551 0
434 -489 551 0
-434 489 551 0
-434 490 -551 0
435 547 35 -436 0
435 -547 35 -117 0
-435 -35 0
-435 547 436 0
-435 -547 117 0
-436 -548 257 0
-436 548 437 0
436 -548 -257 0
436 548 -437 0
-437 -549 416 0
-437 549 438 0
437 -549 -416 0
437 549 -438 0
-438 550 439 0
-438 -550 428 0
438 -550 -428 0
438 550 -439 0
439 -489 -551 0
439 -488 551 0
-439 488 551 0
-439 489 -551 0
440 516 -443 0
440 -516 517 -441 0
-440 -516 -517 0
-440 516 443 0
-440 -516 441 0
441 -518 -442 0
441 518 -388 418 0
441 518 388 -418 0
-441 -518 442 0
-441 518 -388 -418 0
-441 518 388 418 0
442 399 -429 0
442 -399 429 0
-442 -399 -429 0
-442 399 429 0
-443 517 246 0
-443 -517 444 0
443 -517 -444 0
443 517 -246 0
-444 518 445 0
-444 -518 382 412 0
-444 -518 -382 -412 0
444 518 -445 0
444 -518 -382 412 0
444 -518 382 -412 0
-445 -314 -316 0
-445 314 316 0
445 314 -316 0
445 -314 316 0
446 -516 -447 0
446 516 448 -449 0
446 516 -448 449 0
-446 -516 447 0
-446 516 448 449 0
-446 516 -448 -449 0
447 517 518 -442 0
-447 442 0
-447 -518 0
-447 -517 0
448 517 -313 0
448 -517 -381 0
-448 -517 381 0
-448 517 313 0
449 517 -315 0
449 -517 -411 0
-449 -517 411 0
-449 517 315 0
-450 516 463 473 0
-450 451 463 473 0
450 -473 0
450 -463 0
450 -516 -451 0
-451 -517 458 0
-451 517 -452 -455 0
-451 517 452 455 0
451 -517 -458 0
451 517 -452 455 0
451 517 452 -455 0
452 518 -453 0
452 -518 -454 0
-452 -518 454 0
-452 518 453 0
453 519 -383 0
453 -519 -389 0
-453 -519 389 0
-453 519 383 0
454 519 -394 0
454 -519 -400 0
-454 -519 400 0
-454 519 394 0
455 518 -456 0
455 -518 -457 0
-455 -518 457 0
-455 518 456 0
456 519 -413 0
456 -519 -419 0
-456 -519 419 0
-456 519 413 0
457 519 -424 0
457 -519 -430 0
-457 -519 430 0
-457 519 424 0
-458 -459 -461 0
-458 459 461 0
458 459 -461 0
458 -459 461 0
459 518 -460 0
-459 -518 0
-459 460 0
460 519 -405 0
-460 -519 0
-460 405 0
461 518 -462 0
-461 -518 0
-461 462 0
462 519 -435 0
-462 -519 0
-462 435 0
463 -514 516 -468 0
463 -514 -516 -464 0
-463 514 0
-463 -516 464 0
-463 516 468 0
464 517 -465 0
-464 -517 0
-464 465 0
-465 -466 -467 0
-465 466 467 0
465 466 -467 0
465 -466 467 0
466 518 -454 0
466 -518 -460 0
-466 -518 460 0
-466 518 454 0
467 518 -457 0
467 -518 -462 0
-467 -518 462 0
-467 518 457 0
-468 -469 -471 0
-468 469 471 0
468 469 -471 0
468 -469 471 0
469 517 -309 0
469 -517 -470 0
-469 -517 470 0
-469 517 309 0
470 518 -271 0
470 -518 -453 0
-470 -518 453 0
-470 518 271 0
471 517 -310 0
471 -517 -472 0
-471 -517 472 0
-471 517 310 0
472 518 -293 0
472 -518 -456 0
-472 -518 456 0
-472 518 293 0
-473 512 478 480 0
-473 474 478 480 0
473 -480 0
473 -478 0
473 -512 -474 0
-474 -516 -517 0
-474 516 475 0
-474 -516 458 0
474 516 -475 0
474 -516 517 -458 0
-475 -476 -477 0
-475 476 477 0
475 476 -477 0
475 -476 477 0
476 517 -263 0
476 -517 -452 0
-476 -517 452 0
-476 517 263 0
477 517 -285 0
477 -517 -455 0
-477 -517 455 0
-477 517 285 0
478 516 -518 -308 0
478 -516 -518 -479 0
-478 518 0
-478 -516 479 0
-478 516 308 0
-479 -517 465 0
-479 517 470 472 0
-479 517 -470 -472 0
479 -517 -465 0
479 517 470 -472 0
479 517 -470 472 0
480 516 -519 -243 0
480 -516 -519 -481 0
-480 519 0
-480 -516 481 0
-480 516 243 0
-481 -517 441 0
-481 517 444 0
481 -517 -441 0
481 517 -444 0
482 -515 -483 0
482 -515 -485 0
482 -515 -484 0
-482 515 0
-482 483 484 485 0
483 488 -510 516 -479 0
-483 510 0
-483 479 0
-483 -488 0
-483 -516 0
484 488 -508 516 -451 0
-484 508 0
-484 451 0
-484 -488 0
-484 -516 0
-485 -486 487 0
-485 379 487 0
-485 509 487 0
485 -487 0
485 -509 -379 486 0
-486 488 516 0
486 -488 0
486 -516 0
487 488 -511 516 -481 0
-487 511 0
-487 481 0
-487 -488 0
-487 -516 0
-552 0
2 0

